0 50
0 100
8 75
11 59
18 88
21 100
27 60
29 80
37 90
30 55
40 70
45 88
50 100
55 75
53 51
62 69
70 75
70 90
78 65
85 70
89 80
100 100
100 75
95 60
100 50
90 49
53 48
70 40
80 38
92 37
64 32
74 30
75 25
60 20
94 11
100 0
50 0
18 5
40 25
47 45
39 35
25 30
20 46
5 48
30 10
15 15
10 20
0 0
